NAME : rnd34_20.tsp
TYPE : TSP
DIMENSION : 20
EDGE_WEIGHT_TYPE : EUC_2D
NODE_COORD_SECTION
1 474 576
2 283 744
3 576 155
4 418 822
5 87 457
6 354 235
7 248 417
8 337 279
9 574 614
10 598 483
11 229 79
12 368 591
13 976 861
14 467 273
15 375 340
16 541 423
17 392 569
18 264 508
19 303 984
20 591 27
